JulietBench/Juliet_Based_Patch_Bench/linux/CWE-189-Numeric-Errors/CVE_2009_1265_83e0bbcbe2145f160fbaa109b0439dae7f4a38a9/Resultrose_sendmsg_Snippet_patch2NEQ.smt2
; benchmark generated from python API
(set-info :status unknown)
(declare-fun R () (_ BitVec 32))
(declare-fun rdi () (_ BitVec 64))
(assert
 (let (($x52 (and (distinct (_ bv30 32) R) true)))
 (let (($x45 (= (_ bv0 32) R)))
 (let (($x15 (= (_ bv0 64) rdi)))
 (let (($x46 (and $x15 $x45)))
 (let ((?x36 ((_ extract 31 0) rdi)))
 (let ((?x42 (bvadd (_ bv20 32) ?x36)))
 (let (($x41 (= R ?x42)))
 (let (($x27 (and (distinct (_ bv0 64) rdi) true)))
 (let (($x43 (and $x27 $x41)))
 (let (($x47 (or $x43 $x46)))
 (let (($x51 (not $x47)))
 (let (($x53 (and $x51 $x52)))
 (let (($x49 (= (_ bv30 32) R)))
 (let (($x50 (and $x47 $x49)))
 (let (($x54 (or $x50 $x53)))
 (not $x54)))))))))))))))))
(check-sat)
